54017
38, 8, 44, 19, 17, 23, 53, 34, 54, 47, 30, 4, 18, 12, 9, 14, 2, 52, 45, 11, 42, 33, 1, 27, 31, 25, 15, 36, 46, 39, 16, 10, 22, 29, 21, 48, 49, 26, 55, 28, 3, 6, 43, 40, 51, 37, 7, 20, 50, 24, 35, 5, 13, 41, 32
